NAME JobShopModel
ROWS
 N  OBJ
 G  c0      
 E  c1      
 E  c2      
 E  c3      
 E  c4      
 L  c5      
 L  c6      
 L  c7      
 L  c8      
 L  c9      
 L  c10     
 G  c11     
 G  c12     
 G  c13     
 G  c14     
 G  c15     
 G  c16     
 G  c17     
 G  c18     
 G  c19     
 G  c20     
 G  c21     
 G  c22     
 G  c23     
 G  c24     
 G  c25     
 G  c26     
 G  c27     
 G  c28     
 G  c29     
 G  c30     
 G  c31     
 G  c32     
 G  c33     
 G  c34     
 G  c35     
 G  c36     
 G  c37     
COLUMNS
    MARKER    'MARKER'                 'INTORG'
    y[0,0,0]  c0        -64
    y[0,0,0]  c1        1
    y[0,0,0]  c5        -10000000
    y[0,0,0]  c13       -10000000
    y[0,0,0]  c14       -10000000
    y[0,0,0]  c17       -10000000
    y[0,0,0]  c18       -10000000
    y[0,0,0]  c21       -10000000
    y[0,0,0]  c22       -10000000
    y[0,0,1]  c0        -71
    y[0,0,1]  c1        1
    y[0,0,1]  c6        -10000000
    y[0,0,1]  c15       -10000000
    y[0,0,1]  c16       -10000000
    y[0,0,1]  c19       -10000000
    y[0,0,1]  c20       -10000000
    y[0,1,0]  c2        1
    y[0,1,0]  c7        -10000000
    y[0,1,0]  c11       -43
    y[0,1,0]  c13       -10000000
    y[0,1,0]  c14       -10000000
    y[0,1,0]  c21       -10000000
    y[0,1,0]  c22       -10000000
    y[0,1,0]  c23       -10000000
    y[0,1,0]  c24       -10000000
    y[0,1,0]  c31       -480
    y[1,0,1]  c0        -43
    y[1,0,1]  c3        1
    y[1,0,1]  c8        -10000000
    y[1,0,1]  c15       -10000000
    y[1,0,1]  c16       -10000000
    y[1,0,1]  c25       -10000000
    y[1,0,1]  c26       -10000000
    y[1,0,1]  c27       -10000000
    y[1,0,1]  c28       -10000000
    y[1,1,0]  c4        1
    y[1,1,0]  c9        -10000000
    y[1,1,0]  c12       -21
    y[1,1,0]  c17       -10000000
    y[1,1,0]  c18       -10000000
    y[1,1,0]  c23       -10000000
    y[1,1,0]  c24       -10000000
    y[1,1,0]  c34       -480
    y[1,1,1]  c4        1
    y[1,1,1]  c10       -10000000
    y[1,1,1]  c12       -35
    y[1,1,1]  c19       -10000000
    y[1,1,1]  c20       -10000000
    y[1,1,1]  c25       -10000000
    y[1,1,1]  c26       -10000000
    y[1,1,1]  c27       -10000000
    y[1,1,1]  c28       -10000000
    y[1,1,1]  c36       -480
    x[0,0,0,0]  OBJ       0
    x[0,0,0,1]  c13       10000000
    x[0,0,0,1]  c14       -10000000
    x[0,0,1,0]  c15       10000000
    x[0,0,1,0]  c16       -10000000
    x[0,0,1,1]  c17       10000000
    x[0,0,1,1]  c18       -10000000
    x[0,0,1,1]  c19       10000000
    x[0,0,1,1]  c20       -10000000
    x[0,1,0,0]  c21       10000000
    x[0,1,0,0]  c22       -10000000
    x[0,1,0,1]  OBJ       0
    x[0,1,1,0]  OBJ       0
    x[0,1,1,1]  c23       10000000
    x[0,1,1,1]  c24       -10000000
    x[1,0,0,0]  OBJ       0
    x[1,0,0,1]  OBJ       0
    x[1,0,1,0]  OBJ       0
    x[1,0,1,1]  c25       10000000
    x[1,0,1,1]  c26       -10000000
    x[1,1,0,0]  OBJ       0
    x[1,1,0,1]  OBJ       0
    x[1,1,1,0]  c27       10000000
    x[1,1,1,0]  c28       -10000000
    x[1,1,1,1]  OBJ       0
    s[0,0,0]  c0        -1
    s[0,0,0]  c5        1
    s[0,0,0]  c11       1
    s[0,0,0]  c13       -1
    s[0,0,0]  c14       1
    s[0,0,0]  c17       -1
    s[0,0,0]  c18       1
    s[0,0,0]  c21       1
    s[0,0,0]  c22       -1
    s[0,0,0]  c29       1
    s[0,0,1]  c0        -1
    s[0,0,1]  c6        1
    s[0,0,1]  c11       1
    s[0,0,1]  c15       -1
    s[0,0,1]  c16       1
    s[0,0,1]  c19       -1
    s[0,0,1]  c20       1
    s[0,0,1]  c30       1
    s[0,1,0]  c7        1
    s[0,1,0]  c11       -1
    s[0,1,0]  c13       1
    s[0,1,0]  c14       -1
    s[0,1,0]  c21       -1
    s[0,1,0]  c22       1
    s[0,1,0]  c23       -1
    s[0,1,0]  c24       1
    s[0,1,0]  c31       1
    s[0,1,0]  c32       1
    s[1,0,1]  c0        -1
    s[1,0,1]  c8        1
    s[1,0,1]  c12       1
    s[1,0,1]  c15       1
    s[1,0,1]  c16       -1
    s[1,0,1]  c25       -1
    s[1,0,1]  c26       1
    s[1,0,1]  c27       1
    s[1,0,1]  c28       -1
    s[1,0,1]  c33       1
    s[1,1,0]  c9        1
    s[1,1,0]  c12       -1
    s[1,1,0]  c17       1
    s[1,1,0]  c18       -1
    s[1,1,0]  c23       1
    s[1,1,0]  c24       -1
    s[1,1,0]  c34       1
    s[1,1,0]  c35       1
    s[1,1,1]  c10       1
    s[1,1,1]  c12       -1
    s[1,1,1]  c19       1
    s[1,1,1]  c20       -1
    s[1,1,1]  c25       1
    s[1,1,1]  c26       -1
    s[1,1,1]  c27       -1
    s[1,1,1]  c28       1
    s[1,1,1]  c36       1
    s[1,1,1]  c37       1
    Z_FO      OBJ       1
    Z_FO      c0        1
    MARKER    'MARKER'                 'INTEND'
RHS
    RHS1      c1        1
    RHS1      c2        1
    RHS1      c3        1
    RHS1      c4        1
    RHS1      c13       -19999777
    RHS1      c14       -29999819
    RHS1      c15       -19999755
    RHS1      c16       -29999777
    RHS1      c17       -19999830
    RHS1      c18       -29999919
    RHS1      c19       -19999851
    RHS1      c20       -29999797
    RHS1      c21       -19999819
    RHS1      c22       -29999777
    RHS1      c23       -19999804
    RHS1      c24       -29999845
    RHS1      c25       -19999693
    RHS1      c26       -29999790
    RHS1      c27       -19999790
    RHS1      c28       -29999693
BOUNDS
 BV BND1      y[0,0,0]
 BV BND1      y[0,0,1]
 BV BND1      y[0,1,0]
 BV BND1      y[1,0,1]
 BV BND1      y[1,1,0]
 BV BND1      y[1,1,1]
 BV BND1      x[0,0,0,0]
 BV BND1      x[0,0,0,1]
 BV BND1      x[0,0,1,0]
 BV BND1      x[0,0,1,1]
 BV BND1      x[0,1,0,0]
 BV BND1      x[0,1,0,1]
 BV BND1      x[0,1,1,0]
 BV BND1      x[0,1,1,1]
 BV BND1      x[1,0,0,0]
 BV BND1      x[1,0,0,1]
 BV BND1      x[1,0,1,0]
 BV BND1      x[1,0,1,1]
 BV BND1      x[1,1,0,0]
 BV BND1      x[1,1,0,1]
 BV BND1      x[1,1,1,0]
 BV BND1      x[1,1,1,1]
 LI BND1      s[0,0,0]  0
 LI BND1      s[0,0,1]  0
 LI BND1      s[0,1,0]  0
 LI BND1      s[1,0,1]  0
 LI BND1      s[1,1,0]  0
 LI BND1      s[1,1,1]  0
 LI BND1      Z_FO      0
ENDATA
